num_offers = 20;
num_halls = 10;
start=[38,33,2,36,3,3,11,54,3,21,39,50,22,13,33,17,52,27,61,21];
end=[66,60,17,83,5,63,70,67,54,62,82,55,73,60,71,63,80,50,81,86];
price=[1123,940,972,4597,75,5192,4088,780,731,788,2139,245,1119,2019,3414,1655,2267,1156,1793,3747];
requirement=[459,276,761,585,710,493,670,597,986,602,886,437,895,256,415,698,512,404,602,710];
capacity=[880,273,996,951,590,847,917,755,904,994];
